Solver command line: ['C:\\Program Files\\IBM\\ILOG\\CPLEX_Studio2211\\cplex\\bin\\x64_win64\\cplex.exe']


Welcome to IBM(R) ILOG(R) CPLEX(R) Interactive Optimizer 22.1.1.0
  with Simplex, Mixed Integer & Barrier Optimizers
5725-A06 5725-A29 5724-Y48 5724-Y49 5724-Y54 5724-Y55 5655-Y21
Copyright IBM Corp. 1988, 2022.  All Rights Reserved.

Type 'help' for a list of available commands.
Type 'help' followed by a command name for more
information on commands.

CPLEX> Logfile 'cplex.log' closed.
Logfile 'C:\Users\wangy\Documents\GitHub\re_optimization\result_site_specific\tmp550rdwcx.cplex.log' open.
CPLEX> Problem 'C:\Users\wangy\Documents\GitHub\re_optimization\result_site_specific\tmpu8tfqvns.pyomo.lp' read.
Read time = 0.22 sec. (7.28 ticks)
CPLEX> Problem name         : C:\Users\wangy\Documents\GitHub\re_optimization\result_site_specific\tmpu8tfqvns.pyomo.lp
Objective sense      : Minimize
Variables            :   52617  [Nneg: 27764,  Free: 8786,  Binary: 7,
                                 Other: 16060]
Objective nonzeros   :      14
Linear constraints   :   73052  [Less: 39437,  Greater: 3,  Equal: 33612]
  Nonzeros           :  181202
  RHS nonzeros       :    4121

Variables            : Min LB: 0.000000         Max UB: 1.000000       
Objective nonzeros   : Min   : 1.000000         Max   : 1.000000       
Linear constraints   :
  Nonzeros           : Min   : 0.002210148      Max   : 100000.0       
  RHS nonzeros       : Min   : 0.001000000      Max   : 1000.000       
CPLEX> Version identifier: 22.1.1.0 | 2022-11-27 | 9160aff4d
Tried aggregator 3 times.
MIP Presolve eliminated 47662 rows and 28683 columns.
Aggregator did 7344 substitutions.
Reduced MIP has 18046 rows, 16590 columns, and 52336 nonzeros.
Reduced MIP has 5 binaries, 0 generals, 0 SOSs, and 0 indicators.
Presolve time = 0.12 sec. (152.93 ticks)
Found incumbent of value 165025.794018 after 0.16 sec. (178.29 ticks)
Probing time = 0.02 sec. (1.02 ticks)
Tried aggregator 1 time.
Detecting symmetries...
Reduced MIP has 18046 rows, 16590 columns, and 52336 nonzeros.
Reduced MIP has 5 binaries, 0 generals, 0 SOSs, and 0 indicators.
Presolve time = 0.03 sec. (31.07 ticks)
Probing time = 0.01 sec. (0.91 ticks)
MIP emphasis: balance optimality and feasibility.
MIP search method: dynamic search.
Parallel mode: deterministic, using up to 16 threads.
Root relaxation solution time = 0.52 sec. (424.55 ticks)

        Nodes                                         Cuts/
   Node  Left     Objective  IInf  Best Integer    Best Bound    ItCnt     Gap

*     0+    0                       165025.7940    -4062.6419           102.46%
*     0+    0                         2902.0324    -4062.6419           239.99%
*     0     0      integral     0     2899.3960     2899.3960     7546    0.00%
Elapsed time = 0.77 sec. (669.47 ticks, tree = 0.00 MB, solutions = 3)

Root node processing (before b&c):
  Real time             =    0.78 sec. (671.97 ticks)
Parallel b&c, 16 threads:
  Real time             =    0.00 sec. (0.00 ticks)
  Sync time (average)   =    0.00 sec.
  Wait time (average)   =    0.00 sec.
                          ------------
Total (root+branch&cut) =    0.78 sec. (671.97 ticks)

Solution pool: 3 solutions saved.

MIP - Integer optimal solution:  Objective =  2.8993959906e+03
Solution time =    0.78 sec.  Iterations = 7546  Nodes = 0
Deterministic time = 672.12 ticks  (860.59 ticks/sec)

CPLEX> Incumbent solution written to file 'C:\Users\wangy\Documents\GitHub\re_optimization\result_site_specific\tmpizglap3v.cplex.sol'.
CPLEX> 
